CLP/out/Inst02.txt
[[0, 39, 1, 9, 8, 10, 7, 11, 6, 12, 5, 13, 4, 14, 3, 15, 2, 16, 0],[0, 31, 17, 23, 24, 22, 25, 21, 26, 20, 27, 19, 29, 18, 30, 0],[0, 78, 32, 41, 42, 38, 44, 37, 45, 35, 46, 34, 47, 33, 48, 0],[0, 92, 28, 53, 52, 64, 51, 72, 50, 85, 49, 87, 0],[0, 88, 54, 63, 65, 61, 69, 60, 71, 58, 75, 57, 80, 55, 81, 0],[0, 95, 36, 83, 91, 43, 84, 86, 62, 73, 74, 68, 93, 40, 82, 79, 89, 59, 70, 77, 90, 56, 67, 76, 66, 94, 0],[],[],[],[],[],[],[],[],[],[],[],[],[],[]]

Total distance = 6628
