MIP/out/inst02.out
['savings-mzt.py', 'inst02.png']
Heuristic solution: [[23, 30, 83, 75, 40, 49, 34, 4, 77, 90, 31, 35, 82, 91, 26, 79, 45, 61], [81, 19, 55, 74, 92, 38, 93, 20, 16, 64, 17, 44, 62, 73], [1, 42, 22, 71, 66, 36, 53, 12, 3, 76, 50, 51, 24, 80, 2, 14, 18, 67, 56, 85], [65, 32, 47, 33, 88, 78, 94, 9, 69, 37, 60, 25, 72], [58, 70, 41, 59, 84, 86, 43, 63, 13, 8, 68, 27, 39, 5, 7, 6, 48, 10], [87, 95, 29, 57, 54, 52, 89, 28, 11, 21, 46, 15]]
Heuristic val: 1860.0
6 <= 6 <= 20
208 <= 210
207 <= 210
206 <= 210
200 <= 210
199 <= 210
190 <= 200
Set parameter Username
Academic license - for non-commercial use only - expires 2023-07-23
Set parameter TimeLimit to value 300
Waiting for optimizer...
Gurobi Optimizer version 9.5.2 build v9.5.2rc0 (linux64)
Thread count: 2 physical cores, 4 logical processors, using up to 4 threads
Optimize a model with 69671 rows, 55961 columns and 509693 nonzeros
Model fingerprint: 0x12b62e59
Variable types: 95 continuous, 55866 integer (55866 binary)
Coefficient statistics:
  Matrix range     [1e+00, 4e+03]
  Objective range  [1e+00, 3e+02]
  Bounds range     [1e+00, 4e+03]
  RHS range        [1e+00, 4e+03]

Warning: Completing partial solution with 55765 unfixed non-continuous variables out of 55866
User MIP start produced solution with objective 720 (0.17s)
Loaded user MIP start with objective 720

Presolve removed 10278 rows and 576 columns
Presolve time: 1.21s
Presolved: 59393 rows, 55385 columns, 326705 nonzeros
Variable types: 95 continuous, 55290 integer (55290 binary)

Deterministic concurrent LP optimizer: primal and dual simplex
Showing first log only...


Use crossover to convert LP symmetric solution to basic solution...
Concurrent spin time: 0.00s

Solved with dual simplex

Root relaxation: objective 2.985000e+02, 2010 iterations, 0.42 seconds (0.28 work units)

    Nodes    |    Current Node    |     Objective Bounds      |     Work
 Expl Unexpl |  Obj  Depth IntInf | Incumbent    BestBd   Gap | It/Node Time

     0     0  298.50000    0  208  720.00000  298.50000  58.5%     -    2s
     0     0  298.50000    0  293  720.00000  298.50000  58.5%     -    5s
H    0     0                     714.0000000  298.50000  58.2%     -   10s
     0     0  302.50000    0  311  714.00000  302.50000  57.6%     -   11s
     0     0  306.00000    0  251  714.00000  306.00000  57.1%     -   14s
H    0     0                     698.0000000  306.00000  56.2%     -   24s
     0     0  306.00000    0  245  698.00000  306.00000  56.2%     -   24s
     0     0  306.00000    0  359  698.00000  306.00000  56.2%     -   25s
     0     0  306.00000    0  295  698.00000  306.00000  56.2%     -   26s
     0     0  306.00000    0  247  698.00000  306.00000  56.2%     -   28s
     0     0  306.00000    0  312  698.00000  306.00000  56.2%     -   29s
     0     0  306.00000    0  245  698.00000  306.00000  56.2%     -   31s
     0     0  306.00000    0  282  698.00000  306.00000  56.2%     -   32s
     0     0  306.00000    0  241  698.00000  306.00000  56.2%     -   35s
     0     0  306.00000    0  260  698.00000  306.00000  56.2%     -   36s
     0     0  306.00000    0  279  698.00000  306.00000  56.2%     -   39s
     0     0  306.00000    0  214  698.00000  306.00000  56.2%     -   47s
H    0     0                     653.0000000  307.00000  53.0%     -   90s
     0     2  307.00000    0  182  653.00000  307.00000  53.0%     -   91s
     1     4  307.00000    1  183  653.00000  307.00000  53.0%   619   99s
     3     6  308.25000    2  366  653.00000  308.00000  52.8%   808  109s
     5     8  308.25000    3  366  653.00000  308.00000  52.8%   551  110s
     9    12  309.79891    5  502  653.00000  308.00000  52.8%   371  115s
    18    22  313.14286    7  296  653.00000  308.00000  52.8%   220  120s
H   26    29                     645.0000000  308.00000  52.2%   169  134s
    28    32  314.16484   11  316  645.00000  308.00000  52.2%   161  135s
    56    63  317.10345   23  335  645.00000  308.00000  52.2%  96.0  140s
    92    98  318.12121   39  309  645.00000  308.00000  52.2%  65.1  145s
   119   131  319.81279   53  310  645.00000  308.00000  52.2%  56.8  150s
   141   150  319.95384   66  330  645.00000  308.00000  52.2%  52.1  155s
   171   183  321.17818   79  345  645.00000  308.00000  52.2%  50.3  161s
   194   208  322.02028   88  290  645.00000  308.00000  52.2%  49.5  167s
   208   235  336.81256   90  253  645.00000  308.00000  52.2%  55.3  170s
   278   290  338.75454  126  252  645.00000  308.00000  52.2%  44.5  176s
H  290   292                     640.0000000  308.00000  51.9%  42.9  209s
   292   308  338.91810  132  258  640.00000  308.00000  51.9%  42.7  226s
   330   357  339.67479  151  257  640.00000  308.00000  51.9%  40.3  232s
   385   425  425.14590  176  291  640.00000  308.00000  51.9%  36.7  237s
   427   468  425.39821  198  270  640.00000  308.00000  51.9%  33.8  241s
   512   529  426.15513  244  287  640.00000  308.25000  51.8%  29.4  247s
   538   542  310.77523    3  304  640.00000  308.25000  51.8%  31.8  251s
   577   583  319.29268   10  259  640.00000  308.25000  51.8%  34.4  257s
   593   601  319.27027   18  279  640.00000  308.25000  51.8%  35.5  260s
   631   643  331.68966   39  289  640.00000  308.25000  51.8%  37.6  267s
   655   668  336.01299   52  270  640.00000  308.25000  51.8%  38.6  271s
   680   693  341.32432   65  315  640.00000  308.25000  51.8%  40.3  275s
   753   804  352.48773  101  362  640.00000  308.25000  51.8%  40.5  284s
   822   845  485.24825  132  367  640.00000  308.25000  51.8%  38.0  290s
   878   875  486.53397  155  333  640.00000  308.25000  51.8%  37.4  295s

Cutting planes:
  Gomory: 6
  Implied bound: 100
  Clique: 285
  MIR: 82
  Zero half: 37
  RLT: 108
  Relax-and-lift: 66
  BQP: 87
  PSD: 16

Explored 908 nodes (65979 simplex iterations) in 300.05 seconds (526.50 work units)
Thread count was 4 (of 4 available processors)

Solution count 6: 640 645 653 ... 720

Time limit reached
Best objective 6.400000000000e+02, best bound 3.090000000000e+02, gap 51.7188%
Done waiting!
MIP improvement: [[0, 28, 21, 91, 23, 30, 83, 75, 40, 34, 49, 4, 77, 90, 31, 82, 35, 79, 11, 57, 0], [0, 60, 25, 81, 19, 74, 93, 38, 92, 20, 55, 16, 64, 17, 73, 0], [0, 1, 42, 66, 36, 71, 53, 12, 3, 76, 50, 51, 24, 80, 2, 18, 14, 67, 56, 85, 22, 0], [0, 65, 32, 47, 33, 88, 78, 94, 9, 69, 37, 44, 62, 72, 0], [0, 58, 70, 41, 59, 84, 86, 43, 63, 13, 8, 68, 27, 39, 5, 7, 6, 48, 10, 0], [0, 29, 54, 89, 52, 61, 45, 26, 46, 15, 95, 87, 0]]
MIP value: 1826
The solution could be better...
